certificates/rado_a7_c88_N17.cnf
c Rad2 upper bound instance: x1 + 7*x2 - x3 = 88, interval [1,17]
p cnf 17 78
1 4 13 0
-1 -4 -13 0
1 11 14 0
-1 -11 -14 0
2 5 13 0
-2 -5 -13 0
2 12 14 0
-2 -12 -14 0
3 6 13 0
-3 -6 -13 0
3 13 14 0
-3 -13 -14 0
4 7 13 0
-4 -7 -13 0
4 14 0
-4 -14 0
1 5 12 0
-1 -5 -12 0
5 8 13 0
-5 -8 -13 0
5 14 15 0
-5 -14 -15 0
2 6 12 0
-2 -6 -12 0
6 9 13 0
-6 -9 -13 0
6 14 16 0
-6 -14 -16 0
3 7 12 0
-3 -7 -12 0
7 10 13 0
-7 -10 -13 0
7 14 17 0
-7 -14 -17 0
4 8 12 0
-4 -8 -12 0
8 11 13 0
-8 -11 -13 0
5 9 12 0
-5 -9 -12 0
9 12 13 0
-9 -12 -13 0
6 10 12 0
-6 -10 -12 0
10 13 0
-10 -13 0
7 11 12 0
-7 -11 -12 0
11 13 14 0
-11 -13 -14 0
1 11 12 0
-1 -11 -12 0
8 12 0
-8 -12 0
12 13 15 0
-12 -13 -15 0
2 11 13 0
-2 -11 -13 0
13 16 0
-13 -16 0
3 11 14 0
-3 -11 -14 0
10 12 14 0
-10 -12 -14 0
13 14 17 0
-13 -14 -17 0
4 11 15 0
-4 -11 -15 0
11 12 15 0
-11 -12 -15 0
5 11 16 0
-5 -11 -16 0
12 16 0
-12 -16 0
6 11 17 0
-6 -11 -17 0
12 13 17 0
-12 -13 -17 0
