certificates/rado_a7_c88_N17.drat
-14 13 -17 0
-16 -17 0
-17 0
14 -13 0
-12 -13 0
d -12 -15 -13 0
16 0
-13 0
-12 0
10 0
14 0
0
